n = 5;

distance = array2d(1..n,1..n,
[
	0, 2, 5, 7, 7,
	2, 0, 4, 5, 1, 
	5, 4, 0, 3, 6, 
	7, 5, 3, 0, 5, 
	7, 1, 6, 5, 0, 

]);

fenetre_arrivee = array2d(1..n,1..2,
[
	0,	35,
	5,	15,
	10,	20,
	25,	30,
	15,	25,
]);